\ This file has been generated by DOcplex
\ ENCODING=ISO-8859-1
\Problem name: random_problem.lp

Minimize
 obj: 9 x0 - x1 - 7 x2 + 6 x3 - 9 x4 - 10 x6 + 6 x7 - 6 x8 + 4 x9 + 3 x10
      - 4 x11 - 5 x12 + 8 x13 - 8 x14 + 8 x15 + 8 x16 + 6 x17 + 3 x18 - x20
      + 2 x21 - 7 x22 + 2 x23 - 3 x24 + 2 x25 + 6 x26 - 9 x27 - x28 - 7 x29
      + 9 x30 + 3 x31 - 10 x32 + 5 x33 - 3 x34 + 5 x35 + 7 x36 + 6 x37 + 8 x38
      - x39 - 6 x40 + 2 x41 + 8 x42 + 6 x43 + 9 x44 - 7 x45 + x46 - 8 x47
      - 5 x48 + 4 x49 - 2 x50 - 3 x51 - 5 x52 + 9 x53 + 7 x54 - 9 x55 - 10 x56
      + 8 x57 + 3 x58 - 6 x59 + [ - 10 x0*x15 - 2 x0*x16 - 18 x0*x33 + 10 x0*x40
      + 14 x0*x41 - 14 x0*x44 + 12 x0*x47 + 12 x0*x49 - 18 x0*x51 + 18 x0*x59
      - 14 x1*x7 + 18 x1*x17 + 10 x1*x18 + 10 x1*x27 - 18 x1*x33 - 4 x1*x36
      - 18 x1*x41 + 18 x1*x51 + 18 x1*x54 - 8 x1*x59 + 2 x2*x5 + 10 x2*x7
      - 2 x2*x12 + 4 x2*x28 + 6 x2*x33 + 2 x2*x34 - 12 x2*x35 - 6 x2*x39
      - 6 x2*x50 - 12 x2*x56 + 20 x3*x7 - 6 x3*x15 - 6 x3*x22 + 16 x3*x27
      + 4 x3*x30 - 8 x3*x31 - 12 x3*x33 + 16 x3*x36 - 6 x3*x50 + 20 x3*x59
      - 6 x4*x8 - 16 x4*x12 + 6 x4*x23 - 4 x4*x28 - 12 x4*x34 - 14 x4*x40
      + 6 x4*x44 - 10 x4*x51 + 20 x4*x55 + 18 x4*x56 + 2 x5*x15 + 8 x5*x19
      + 6 x5*x24 - 10 x5*x25 + 8 x5*x42 - 4 x5*x46 + 20 x5*x55 + 2 x5*x58
      - 8 x5*x59 + 14 x6*x15 - 10 x6*x22 - 2 x6*x24 + 18 x6*x26 + 18 x6*x27
      + 8 x6*x38 - 18 x6*x39 + 20 x6*x41 - 12 x6*x43 + 12 x6*x46 + 6 x7*x16
      + 4 x7*x20 + 10 x7*x23 - 10 x7*x34 + 8 x7*x36 - 12 x7*x48 - 20 x7*x58
      - 2 x8*x9 - 4 x8*x17 + 20 x8*x33 - 20 x8*x37 + 20 x8*x42 - 12 x8*x43
      + 14 x8*x44 - 16 x8*x52 - 10 x8*x57 + 20 x9*x21 + 18 x9*x26 - 8 x9*x28
      + 20 x9*x29 + 6 x9*x32 - 4 x9*x37 - 10 x9*x41 - 20 x9*x52 - 10 x9*x56
      - 18 x10*x18 - 16 x10*x19 - 2 x10*x25 + 12 x10*x30 + 6 x10*x32
      + 16 x10*x36 - 8 x10*x38 + 8 x10*x39 - 16 x10*x42 + 16 x10*x50 + 2 x11*x12
      - 14 x11*x14 - 10 x11*x18 + 10 x11*x30 + 18 x11*x33 + 6 x11*x35
      - 14 x11*x40 - 6 x11*x45 - 6 x11*x47 - 16 x11*x54 + 16 x12*x18
      + 12 x12*x21 - 20 x12*x27 + 14 x12*x40 - 2 x12*x46 + 12 x12*x54
      - 20 x12*x59 + 2 x13*x21 + 18 x13*x27 + 4 x13*x37 + 20 x13*x40
      + 10 x13*x41 - 8 x13*x42 + 8 x13*x43 - 12 x13*x48 + 4 x13*x53 - 12 x13*x58
      + 6 x14*x17 - 20 x14*x21 - 2 x14*x25 + 8 x14*x34 + 14 x14*x47 + 4 x14*x49
      + 2 x14*x52 - 10 x14*x53 - 8 x14*x55 + 14 x15*x21 + 16 x15*x22
      - 20 x15*x26 + 12 x15*x29 + 20 x15*x44 + 20 x15*x52 - 20 x16*x23
      - 8 x16*x28 + 20 x16*x29 + 20 x16*x36 + 6 x16*x37 - 4 x16*x45 + 6 x16*x51
      - 2 x16*x56 + 4 x17*x34 + 14 x17*x37 + 10 x17*x38 - 18 x17*x48
      - 12 x17*x50 - 18 x17*x51 - 16 x17*x55 + 10 x18*x32 - 8 x18*x44
      + 12 x18*x45 - 18 x18*x48 - 12 x18*x49 - 4 x18*x51 - 20 x19*x20
      + 16 x19*x27 + 8 x19*x31 + 10 x19*x41 - 12 x19*x42 + 4 x19*x43
      + 10 x19*x47 + 4 x19*x54 - 4 x20*x25 + 20 x20*x28 - 8 x20*x34 - 10 x20*x35
      + 2 x20*x45 + 16 x20*x48 - 14 x20*x49 - 16 x20*x58 - 16 x21*x25
      - 8 x21*x40 - 16 x21*x46 + 20 x21*x48 - 12 x21*x50 - 18 x22*x23
      + 14 x22*x26 - 4 x22*x27 - 2 x22*x30 + 20 x22*x49 - 18 x22*x50 - 4 x22*x56
      - 10 x23*x26 - 8 x23*x39 - 6 x23*x44 - 18 x23*x52 - 6 x23*x53 - 14 x23*x56
      + 16 x24*x30 + 4 x24*x35 - 8 x24*x39 - 2 x24*x48 - 12 x24*x54 + 16 x24*x57
      - 8 x24*x58 - 18 x24*x59 + 14 x25*x40 + 18 x25*x43 - 20 x25*x45
      - 6 x25*x57 - 12 x25*x58 + 6 x26*x30 + 20 x26*x38 - 6 x26*x40 - 14 x26*x41
      + 8 x26*x56 + 16 x27*x39 + 2 x27*x44 - 18 x27*x56 + 18 x28*x31
      + 18 x28*x33 - 12 x28*x35 - 10 x28*x40 + 10 x28*x46 + 2 x29*x30
      - 12 x29*x32 + 18 x29*x34 - 20 x29*x47 + 14 x29*x49 - 20 x29*x52
      + 16 x29*x56 - 16 x30*x36 + 2 x30*x42 - 6 x30*x43 + 16 x31*x35
      - 20 x31*x37 + 10 x31*x39 - 16 x31*x41 - 2 x31*x43 + 12 x31*x53
      + 18 x31*x55 - 8 x32*x35 + 4 x32*x38 - 12 x32*x40 - 16 x32*x41
      - 18 x32*x47 + 6 x32*x50 - 10 x33*x36 + 18 x33*x48 + 8 x33*x50 + 8 x34*x44
      - 18 x34*x52 + 14 x34*x55 - 10 x35*x46 + 2 x35*x47 - 20 x35*x49
      - 16 x36*x37 - 14 x36*x48 + 2 x36*x55 + 18 x37*x54 - 6 x37*x57
      + 12 x37*x59 - 16 x38*x42 - 18 x38*x44 - 10 x38*x53 + 6 x38*x57
      - 10 x38*x58 + 12 x39*x42 - 20 x39*x45 - 20 x39*x47 + 6 x41*x59
      - 10 x42*x53 - 2 x42*x59 - 2 x43*x47 - 16 x43*x51 + 6 x43*x54 - 6 x44*x53
      + 20 x45*x51 + 18 x45*x52 + 4 x45*x53 + 14 x45*x57 - 8 x46*x49 - 2 x46*x55
      - 18 x46*x57 - 20 x46*x58 + 2 x47*x49 - 10 x48*x51 - 4 x49*x58 + 2 x50*x52
      + 14 x50*x59 - 10 x51*x54 + 10 x52*x58 - 14 x53*x55 - 20 x53*x56
      + 4 x54*x55 - 6 x54*x57 ]/2
Subject To
 c0: 2 x12 - x17 - 2 x20 + x35 + 2 x38 - x40 - 2 x41 - 2 x48 + 2 x56 + x59 = 1
 c1: 2 x13 + 2 x17 - x19 + x24 + x26 + 2 x31 + 2 x43 - 2 x46 - x49 - x59 = 0
 c2: - x1 + 2 x4 + x9 - 2 x21 + 2 x26 - 2 x31 - 2 x37 + x52 + x56 - 2 x59 = 0
 c3: 2 x2 + x6 - x13 + x16 + x24 + x27 + x39 - 2 x46 + x49 - x57 = -2
 c4: - x6 - x7 + x14 + 2 x18 - 2 x30 + 2 x38 - 2 x40 - 2 x41 + 2 x51 - x55 = 1
 c5: - 2 x3 - 2 x12 + x19 + 2 x29 - x42 - 2 x43 + 2 x45 + 2 x48 - 2 x52 + x53
      = 0
 c6: - 2 x0 - x6 + x15 - 2 x17 + x19 - x31 - 2 x33 - 2 x34 - 2 x42 - x59 = 0
 c7: - 2 x3 - x8 + 2 x12 - x16 - x29 + 2 x34 - x35 + 2 x40 - 2 x46 + 2 x52 = 1
 c8: - 2 x8 + x9 + 2 x18 + 2 x21 - x26 + 2 x29 + x33 + 2 x41 - 2 x50 + x53 = -2
 c9: x19 - 2 x22 - 2 x27 - x30 - 2 x33 - 2 x35 - 2 x45 - 2 x48 + x53 - x57 = 1
 c10: x1 + x10 - x12 + x18 - 2 x24 + x28 - x36 + x37 - x50 + 2 x58 = 0
 c11: x0 - 2 x5 - x11 + x12 - 2 x24 - x27 + x29 - 2 x32 - x48 - x58 = 0

Bounds
 0 <= x0 <= 1
 0 <= x1 <= 1
 0 <= x2 <= 1
 0 <= x3 <= 1
 0 <= x4 <= 1
 0 <= x5 <= 1
 0 <= x6 <= 1
 0 <= x7 <= 1
 0 <= x8 <= 1
 0 <= x9 <= 1
 0 <= x10 <= 1
 0 <= x11 <= 1
 0 <= x12 <= 1
 0 <= x13 <= 1
 0 <= x14 <= 1
 0 <= x15 <= 1
 0 <= x16 <= 1
 0 <= x17 <= 1
 0 <= x18 <= 1
 0 <= x19 <= 1
 0 <= x20 <= 1
 0 <= x21 <= 1
 0 <= x22 <= 1
 0 <= x23 <= 1
 0 <= x24 <= 1
 0 <= x25 <= 1
 0 <= x26 <= 1
 0 <= x27 <= 1
 0 <= x28 <= 1
 0 <= x29 <= 1
 0 <= x30 <= 1
 0 <= x31 <= 1
 0 <= x32 <= 1
 0 <= x33 <= 1
 0 <= x34 <= 1
 0 <= x35 <= 1
 0 <= x36 <= 1
 0 <= x37 <= 1
 0 <= x38 <= 1
 0 <= x39 <= 1
 0 <= x40 <= 1
 0 <= x41 <= 1
 0 <= x42 <= 1
 0 <= x43 <= 1
 0 <= x44 <= 1
 0 <= x45 <= 1
 0 <= x46 <= 1
 0 <= x47 <= 1
 0 <= x48 <= 1
 0 <= x49 <= 1
 0 <= x50 <= 1
 0 <= x51 <= 1
 0 <= x52 <= 1
 0 <= x53 <= 1
 0 <= x54 <= 1
 0 <= x55 <= 1
 0 <= x56 <= 1
 0 <= x57 <= 1
 0 <= x58 <= 1
 0 <= x59 <= 1

Binaries
 x0 x1 x2 x3 x4 x5 x6 x7 x8 x9 x10 x11 x12 x13 x14 x15 x16 x17 x18 x19 x20 x21
 x22 x23 x24 x25 x26 x27 x28 x29 x30 x31 x32 x33 x34 x35 x36 x37 x38 x39 x40 x41
 x42 x43 x44 x45 x46 x47 x48 x49 x50 x51 x52 x53 x54 x55 x56 x57 x58 x59
End
